
Gurobi 6.0.5 (linux64) logging started Fri Oct 20 10:52:49 2017


Gurobi 6.0.5 (linux64) logging started Fri Oct 20 10:52:59 2017


Gurobi 6.0.5 (linux64) logging started Fri Oct 20 10:53:06 2017


Gurobi 6.0.5 (linux64) logging started Fri Oct 20 10:53:14 2017


Gurobi 6.0.5 (linux64) logging started Fri Oct 20 10:53:23 2017


Gurobi 6.0.5 (linux64) logging started Fri Oct 20 10:53:33 2017


Gurobi 6.0.5 (linux64) logging started Fri Oct 20 10:53:46 2017


Gurobi 6.0.5 (linux64) logging started Fri Oct 20 10:54:02 2017


Gurobi 6.0.5 (linux64) logging started Fri Oct 20 10:54:21 2017


Gurobi 6.0.5 (linux64) logging started Fri Oct 20 10:55:23 2017


Gurobi 6.0.5 (linux64) logging started Fri Oct 20 10:55:28 2017


Gurobi 6.0.5 (linux64) logging started Fri Oct 20 10:55:35 2017


Gurobi 6.0.5 (linux64) logging started Fri Oct 20 10:55:42 2017


Gurobi 6.0.5 (linux64) logging started Fri Oct 20 10:55:51 2017


Gurobi 6.0.5 (linux64) logging started Fri Oct 20 10:56:02 2017


Gurobi 6.0.5 (linux64) logging started Fri Oct 20 10:56:16 2017


Gurobi 6.0.5 (linux64) logging started Fri Oct 20 10:56:31 2017


Gurobi 6.0.5 (linux64) logging started Fri Oct 20 10:56:49 2017

